# Node Net
720   1
  5   1
6381   1
6361   1
6337   1
3520   2
4240   2
 70   2
6400   2
3601   2
  7   3
6336   3
6332   3
 14   3
 22   3
2800   4
2480   4
 69   4
1601   5
 45   5
1520   5
 25   6
6327   6
1761   7
6399   7
 43   8
4321   8
801   9
6001   9
2881  10
3841  10
 37  11
2880  11
